data;

set J := 1 2 3;
set M := 1 2 3;

param num_J = 3;
param num_M = 3;

param p := 1 1 9
		   1 2 8
		   1 3 7
		   2 1 5
		   2 2 8
		   2 3 6
		   3 1 9
		   3 2 8
		   3 3 6;

param s := 1 3
		   2 2
		   3 3;
		   
param pi := 1 3
			2 1
			3 2
		
